p cnf 196 1
196 0
w 1 0.382622
w 2 1 0.932881
w 2 -1 0.262746
w 3 2 0
w 3 -2 1
w 4 3 0.787507
w 4 -3 0.906587
w 5 4 0.340931
w 5 -4 0.994211
w 6 5 0
w 6 -5 1
w 7 6 1
w 7 -6 0
w 8 7 1
w 8 -7 0
w 9 8 0.723474
w 9 -8 0.182531
w 10 9 0.40796
w 10 -9 0.789395
w 11 10 0.991294
w 11 -10 0.26291
w 12 11 1
w 12 -11 0
w 13 12 0.310728
w 13 -12 0.842653
w 14 13 0
w 14 -13 1
w 15 1 1
w 15 -1 0
w 16 15 2 1
w 16 15 -2 1
w 16 -15 2 0
w 16 -15 -2 0
w 17 16 3 0.358245
w 17 16 -3 0.72318
w 17 -16 3 0.348653
w 17 -16 -3 0.830578
w 18 17 4 0.663213
w 18 17 -4 0.689361
w 18 -17 4 0.612853
w 18 -17 -4 0.386687
w 19 18 5 0.187927
w 19 18 -5 0.794647
w 19 -18 5 0.661287
w 19 -18 -5 0.835716
w 20 19 6 0.924197
w 20 19 -6 0.107937
w 20 -19 6 0.245972
w 20 -19 -6 0.627067
w 21 20 7 0
w 21 20 -7 1
w 21 -20 7 1
w 21 -20 -7 1
w 22 21 8 1
w 22 21 -8 0
w 22 -21 8 1
w 22 -21 -8 0
w 23 22 9 0
w 23 22 -9 0
w 23 -22 9 0
w 23 -22 -9 1
w 24 23 10 0.208143
w 24 23 -10 0.36194
w 24 -23 10 0.249296
w 24 -23 -10 0.59483
w 25 24 11 1
w 25 24 -11 1
w 25 -24 11 1
w 25 -24 -11 0
w 26 25 12 0
w 26 25 -12 1
w 26 -25 12 1
w 26 -25 -12 1
w 27 26 13 0.510015
w 27 26 -13 0.335432
w 27 -26 13 0.461817
w 27 -26 -13 0.704038
w 28 27 14 0.581538
w 28 27 -14 0.630702
w 28 -27 14 0.29232
w 28 -27 -14 0.0652938
w 29 15 0.488596
w 29 -15 0.907294
w 30 29 16 0.033525
w 30 29 -16 0.579873
w 30 -29 16 0.513031
w 30 -29 -16 0.241668
w 31 30 17 0.762328
w 31 30 -17 0.836498
w 31 -30 17 0.175644
w 31 -30 -17 0.199551
w 32 31 18 0
w 32 31 -18 1
w 32 -31 18 1
w 32 -31 -18 0
w 33 32 19 0.822782
w 33 32 -19 0.336462
w 33 -32 19 0.652908
w 33 -32 -19 0.332796
w 34 33 20 0.114724
w 34 33 -20 0.0368349
w 34 -33 20 0.360136
w 34 -33 -20 0.696263
w 35 34 21 0.652456
w 35 34 -21 0.761556
w 35 -34 21 0.559592
w 35 -34 -21 0.141051
w 36 35 22 0.43618
w 36 35 -22 0.174576
w 36 -35 22 0.248724
w 36 -35 -22 0.949212
w 37 36 23 1
w 37 36 -23 1
w 37 -36 23 0
w 37 -36 -23 0
w 38 37 24 0.478716
w 38 37 -24 0.436945
w 38 -37 24 0.383579
w 38 -37 -24 0.880108
w 39 38 25 0
w 39 38 -25 1
w 39 -38 25 0
w 39 -38 -25 1
w 40 39 26 1
w 40 39 -26 1
w 40 -39 26 1
w 40 -39 -26 0
w 41 40 27 0.740058
w 41 40 -27 0.34797
w 41 -40 27 0.462396
w 41 -40 -27 0.299651
w 42 41 28 1
w 42 41 -28 0
w 42 -41 28 0
w 42 -41 -28 1
w 43 29 0.0798416
w 43 -29 0.570509
w 44 43 30 0
w 44 43 -30 0
w 44 -43 30 0
w 44 -43 -30 1
w 45 44 31 1
w 45 44 -31 1
w 45 -44 31 0
w 45 -44 -31 1
w 46 45 32 1
w 46 45 -32 0
w 46 -45 32 1
w 46 -45 -32 0
w 47 46 33 0.502505
w 47 46 -33 0.395038
w 47 -46 33 0.523467
w 47 -46 -33 0.242564
w 48 47 34 0.985864
w 48 47 -34 0.542214
w 48 -47 34 0.23203
w 48 -47 -34 0.117111
w 49 48 35 1
w 49 48 -35 0
w 49 -48 35 1
w 49 -48 -35 1
w 50 49 36 0
w 50 49 -36 1
w 50 -49 36 0
w 50 -49 -36 0
w 51 50 37 0
w 51 50 -37 0
w 51 -50 37 1
w 51 -50 -37 1
w 52 51 38 0
w 52 51 -38 0
w 52 -51 38 1
w 52 -51 -38 0
w 53 52 39 0.137546
w 53 52 -39 0.537283
w 53 -52 39 0.450935
w 53 -52 -39 0.38011
w 54 53 40 1
w 54 53 -40 1
w 54 -53 40 0
w 54 -53 -40 1
w 55 54 41 1
w 55 54 -41 1
w 55 -54 41 1
w 55 -54 -41 0
w 56 55 42 0
w 56 55 -42 1
w 56 -55 42 0
w 56 -55 -42 0
w 57 43 0.500781
w 57 -43 0.549065
w 58 57 44 0.579358
w 58 57 -44 0.835856
w 58 -57 44 0.826642
w 58 -57 -44 0.0220785
w 59 58 45 0.461683
w 59 58 -45 0.164323
w 59 -58 45 0.868164
w 59 -58 -45 0.599229
w 60 59 46 0.319099
w 60 59 -46 0.979339
w 60 -59 46 0.981896
w 60 -59 -46 0.755898
w 61 60 47 0.494218
w 61 60 -47 0.309807
w 61 -60 47 0.102033
w 61 -60 -47 0.902167
w 62 61 48 0
w 62 61 -48 0
w 62 -61 48 1
w 62 -61 -48 0
w 63 62 49 0.602245
w 63 62 -49 0.979091
w 63 -62 49 0.787882
w 63 -62 -49 0.103026
w 64 63 50 0.409467
w 64 63 -50 0.682384
w 64 -63 50 0.364012
w 64 -63 -50 0.236108
w 65 64 51 0.304708
w 65 64 -51 0.697791
w 65 -64 51 0.868785
w 65 -64 -51 0.172872
w 66 65 52 0
w 66 65 -52 0
w 66 -65 52 0
w 66 -65 -52 1
w 67 66 53 0
w 67 66 -53 1
w 67 -66 53 0
w 67 -66 -53 0
w 68 67 54 0.918474
w 68 67 -54 0.545548
w 68 -67 54 0.234258
w 68 -67 -54 0.397854
w 69 68 55 0
w 69 68 -55 1
w 69 -68 55 1
w 69 -68 -55 1
w 70 69 56 0
w 70 69 -56 0
w 70 -69 56 0
w 70 -69 -56 1
w 71 57 0.489972
w 71 -57 0.510135
w 72 71 58 1
w 72 71 -58 1
w 72 -71 58 1
w 72 -71 -58 0
w 73 72 59 1
w 73 72 -59 1
w 73 -72 59 0
w 73 -72 -59 1
w 74 73 60 0.374026
w 74 73 -60 0.476612
w 74 -73 60 0.898996
w 74 -73 -60 0.919574
w 75 74 61 0.29685
w 75 74 -61 0.253743
w 75 -74 61 0.922187
w 75 -74 -61 0.296949
w 76 75 62 0.921386
w 76 75 -62 0.400074
w 76 -75 62 0.408417
w 76 -75 -62 0.330051
w 77 76 63 0
w 77 76 -63 1
w 77 -76 63 1
w 77 -76 -63 0
w 78 77 64 1
w 78 77 -64 1
w 78 -77 64 0
w 78 -77 -64 1
w 79 78 65 0.872923
w 79 78 -65 0.444895
w 79 -78 65 0.404809
w 79 -78 -65 0.966893
w 80 79 66 0.385331
w 80 79 -66 0.340919
w 80 -79 66 0.449446
w 80 -79 -66 0.284327
w 81 80 67 0
w 81 80 -67 0
w 81 -80 67 1
w 81 -80 -67 0
w 82 81 68 0
w 82 81 -68 0
w 82 -81 68 1
w 82 -81 -68 1
w 83 82 69 1
w 83 82 -69 1
w 83 -82 69 0
w 83 -82 -69 0
w 84 83 70 0.173651
w 84 83 -70 0.0344608
w 84 -83 70 0.583133
w 84 -83 -70 0.137111
w 85 71 1
w 85 -71 0
w 86 85 72 0.421233
w 86 85 -72 0.422949
w 86 -85 72 0.55484
w 86 -85 -72 0.806564
w 87 86 73 0.0042862
w 87 86 -73 0.0908907
w 87 -86 73 0.0243616
w 87 -86 -73 0.164602
w 88 87 74 0.538598
w 88 87 -74 0.247105
w 88 -87 74 0.550193
w 88 -87 -74 0.619836
w 89 88 75 1
w 89 88 -75 0
w 89 -88 75 0
w 89 -88 -75 0
w 90 89 76 1
w 90 89 -76 0
w 90 -89 76 0
w 90 -89 -76 1
w 91 90 77 0.474925
w 91 90 -77 0.102988
w 91 -90 77 0.742278
w 91 -90 -77 0.491349
w 92 91 78 0.324284
w 92 91 -78 0.912581
w 92 -91 78 0.981994
w 92 -91 -78 0.879124
w 93 92 79 0.745862
w 93 92 -79 0.88341
w 93 -92 79 0.810036
w 93 -92 -79 0.770224
w 94 93 80 0
w 94 93 -80 1
w 94 -93 80 0
w 94 -93 -80 1
w 95 94 81 0.546111
w 95 94 -81 0.86069
w 95 -94 81 0.0381474
w 95 -94 -81 0.131045
w 96 95 82 1
w 96 95 -82 1
w 96 -95 82 0
w 96 -95 -82 1
w 97 96 83 0.189548
w 97 96 -83 0.166525
w 97 -96 83 0.647587
w 97 -96 -83 0.931826
w 98 97 84 0.206632
w 98 97 -84 0.25611
w 98 -97 84 0.570455
w 98 -97 -84 0.188626
w 99 85 1
w 99 -85 0
w 100 99 86 0.0186437
w 100 99 -86 0.099636
w 100 -99 86 0.704712
w 100 -99 -86 0.0666561
w 101 100 87 0.0135335
w 101 100 -87 0.361774
w 101 -100 87 0.614036
w 101 -100 -87 0.942191
w 102 101 88 0.474726
w 102 101 -88 0.980338
w 102 -101 88 0.0389293
w 102 -101 -88 0.627592
w 103 102 89 1
w 103 102 -89 1
w 103 -102 89 0
w 103 -102 -89 0
w 104 103 90 1
w 104 103 -90 1
w 104 -103 90 1
w 104 -103 -90 0
w 105 104 91 1
w 105 104 -91 0
w 105 -104 91 1
w 105 -104 -91 1
w 106 105 92 0.585603
w 106 105 -92 0.743335
w 106 -105 92 0.707165
w 106 -105 -92 0.290315
w 107 106 93 0.288904
w 107 106 -93 0.303848
w 107 -106 93 0.171765
w 107 -106 -93 0.90294
w 108 107 94 0
w 108 107 -94 0
w 108 -107 94 1
w 108 -107 -94 0
w 109 108 95 0
w 109 108 -95 1
w 109 -108 95 1
w 109 -108 -95 1
w 110 109 96 0.618754
w 110 109 -96 0.470525
w 110 -109 96 0.0463805
w 110 -109 -96 0.952103
w 111 110 97 0
w 111 110 -97 1
w 111 -110 97 0
w 111 -110 -97 1
w 112 111 98 1
w 112 111 -98 1
w 112 -111 98 0
w 112 -111 -98 0
w 113 99 0
w 113 -99 1
w 114 113 100 1
w 114 113 -100 0
w 114 -113 100 0
w 114 -113 -100 0
w 115 114 101 1
w 115 114 -101 0
w 115 -114 101 0
w 115 -114 -101 0
w 116 115 102 1
w 116 115 -102 1
w 116 -115 102 1
w 116 -115 -102 0
w 117 116 103 0
w 117 116 -103 0
w 117 -116 103 0
w 117 -116 -103 1
w 118 117 104 0.877582
w 118 117 -104 0.0212915
w 118 -117 104 0.0188498
w 118 -117 -104 0.623169
w 119 118 105 0
w 119 118 -105 1
w 119 -118 105 1
w 119 -118 -105 0
w 120 119 106 0.8418
w 120 119 -106 0.0514633
w 120 -119 106 0.584614
w 120 -119 -106 0.912793
w 121 120 107 0
w 121 120 -107 1
w 121 -120 107 1
w 121 -120 -107 0
w 122 121 108 0
w 122 121 -108 1
w 122 -121 108 0
w 122 -121 -108 0
w 123 122 109 1
w 123 122 -109 0
w 123 -122 109 1
w 123 -122 -109 1
w 124 123 110 0.654073
w 124 123 -110 0.440441
w 124 -123 110 0.790795
w 124 -123 -110 0.672923
w 125 124 111 0
w 125 124 -111 1
w 125 -124 111 1
w 125 -124 -111 1
w 126 125 112 0.513931
w 126 125 -112 0.602854
w 126 -125 112 0.30612
w 126 -125 -112 0.426724
w 127 113 0
w 127 -113 1
w 128 127 114 0.971436
w 128 127 -114 0.369702
w 128 -127 114 0.00327908
w 128 -127 -114 0.511044
w 129 128 115 0.639815
w 129 128 -115 0.312028
w 129 -128 115 0.126658
w 129 -128 -115 0.485077
w 130 129 116 0
w 130 129 -116 0
w 130 -129 116 1
w 130 -129 -116 1
w 131 130 117 1
w 131 130 -117 1
w 131 -130 117 0
w 131 -130 -117 1
w 132 131 118 0.274669
w 132 131 -118 0.380594
w 132 -131 118 0.326118
w 132 -131 -118 0.996175
w 133 132 119 0.928972
w 133 132 -119 0.302295
w 133 -132 119 0.32125
w 133 -132 -119 0.00342192
w 134 133 120 1
w 134 133 -120 1
w 134 -133 120 0
w 134 -133 -120 0
w 135 134 121 0
w 135 134 -121 0
w 135 -134 121 0
w 135 -134 -121 1
w 136 135 122 0.124422
w 136 135 -122 0.0943396
w 136 -135 122 0.0264465
w 136 -135 -122 0.220418
w 137 136 123 0.514823
w 137 136 -123 0.107208
w 137 -136 123 0.886083
w 137 -136 -123 0.06681
w 138 137 124 0.660809
w 138 137 -124 0.341479
w 138 -137 124 0.196267
w 138 -137 -124 0.986927
w 139 138 125 1
w 139 138 -125 0
w 139 -138 125 1
w 139 -138 -125 0
w 140 139 126 0.645146
w 140 139 -126 0.262382
w 140 -139 126 0.894179
w 140 -139 -126 0.0200447
w 141 127 1
w 141 -127 0
w 142 141 128 0
w 142 141 -128 1
w 142 -141 128 1
w 142 -141 -128 1
w 143 142 129 1
w 143 142 -129 1
w 143 -142 129 1
w 143 -142 -129 0
w 144 143 130 1
w 144 143 -130 0
w 144 -143 130 0
w 144 -143 -130 1
w 145 144 131 0.537503
w 145 144 -131 0.641997
w 145 -144 131 0.553299
w 145 -144 -131 0.875158
w 146 145 132 0.469198
w 146 145 -132 0.515108
w 146 -145 132 0.144831
w 146 -145 -132 0.388519
w 147 146 133 0
w 147 146 -133 1
w 147 -146 133 1
w 147 -146 -133 0
w 148 147 134 0.262688
w 148 147 -134 0.132646
w 148 -147 134 0.840787
w 148 -147 -134 0.534078
w 149 148 135 0.143219
w 149 148 -135 0.899809
w 149 -148 135 0.334981
w 149 -148 -135 0.666069
w 150 149 136 0.464195
w 150 149 -136 0.296127
w 150 -149 136 0.824852
w 150 -149 -136 0.660218
w 151 150 137 0.391224
w 151 150 -137 0.197722
w 151 -150 137 0.383854
w 151 -150 -137 0.944523
w 152 151 138 0
w 152 151 -138 1
w 152 -151 138 1
w 152 -151 -138 0
w 153 152 139 0.748241
w 153 152 -139 0.668685
w 153 -152 139 0.0849381
w 153 -152 -139 0.92854
w 154 153 140 1
w 154 153 -140 0
w 154 -153 140 0
w 154 -153 -140 0
w 155 141 0.0451338
w 155 -141 0.731722
w 156 155 142 0.380115
w 156 155 -142 0.397791
w 156 -155 142 0.544404
w 156 -155 -142 0.844309
w 157 156 143 0.369256
w 157 156 -143 0.504528
w 157 -156 143 0.435774
w 157 -156 -143 0.760481
w 158 157 144 0.819628
w 158 157 -144 0.705004
w 158 -157 144 0.775129
w 158 -157 -144 0.936271
w 159 158 145 0
w 159 158 -145 0
w 159 -158 145 1
w 159 -158 -145 1
w 160 159 146 0.00590454
w 160 159 -146 0.0398971
w 160 -159 146 0.0583264
w 160 -159 -146 0.75362
w 161 160 147 1
w 161 160 -147 1
w 161 -160 147 0
w 161 -160 -147 1
w 162 161 148 1
w 162 161 -148 0
w 162 -161 148 0
w 162 -161 -148 0
w 163 162 149 0
w 163 162 -149 0
w 163 -162 149 0
w 163 -162 -149 1
w 164 163 150 0.420955
w 164 163 -150 0.960691
w 164 -163 150 0.634333
w 164 -163 -150 0.357226
w 165 164 151 1
w 165 164 -151 0
w 165 -164 151 1
w 165 -164 -151 0
w 166 165 152 1
w 166 165 -152 0
w 166 -165 152 1
w 166 -165 -152 1
w 167 166 153 1
w 167 166 -153 0
w 167 -166 153 1
w 167 -166 -153 0
w 168 167 154 0
w 168 167 -154 1
w 168 -167 154 1
w 168 -167 -154 0
w 169 155 0.813063
w 169 -155 0.53896
w 170 169 156 0.414389
w 170 169 -156 0.794647
w 170 -169 156 0.767304
w 170 -169 -156 0.835344
w 171 170 157 0.401638
w 171 170 -157 0.19257
w 171 -170 157 0.834756
w 171 -170 -157 0.399087
w 172 171 158 0.835139
w 172 171 -158 0.507893
w 172 -171 158 0.168938
w 172 -171 -158 0.841428
w 173 172 159 0.648663
w 173 172 -159 0.601336
w 173 -172 159 0.036424
w 173 -172 -159 0.511258
w 174 173 160 0.372682
w 174 173 -160 0.801856
w 174 -173 160 0.879242
w 174 -173 -160 0.290486
w 175 174 161 0.526752
w 175 174 -161 0.33424
w 175 -174 161 0.651718
w 175 -174 -161 0.339815
w 176 175 162 0.559818
w 176 175 -162 0.754204
w 176 -175 162 0.667847
w 176 -175 -162 0.327122
w 177 176 163 0.423185
w 177 176 -163 0.728759
w 177 -176 163 0.782119
w 177 -176 -163 0.257941
w 178 177 164 1
w 178 177 -164 0
w 178 -177 164 0
w 178 -177 -164 0
w 179 178 165 0.292335
w 179 178 -165 0.347259
w 179 -178 165 0.535844
w 179 -178 -165 0.328759
w 180 179 166 0.239211
w 180 179 -166 0.701442
w 180 -179 166 0.660373
w 180 -179 -166 0.118453
w 181 180 167 0.560947
w 181 180 -167 0.645205
w 181 -180 167 0.326168
w 181 -180 -167 0.212664
w 182 181 168 0.199368
w 182 181 -168 0.772482
w 182 -181 168 0.739225
w 182 -181 -168 0.867215
w 183 169 1
w 183 -169 0
w 184 183 170 0
w 184 183 -170 0
w 184 -183 170 1
w 184 -183 -170 1
w 185 184 171 0.641421
w 185 184 -171 0.591949
w 185 -184 171 0.339147
w 185 -184 -171 0.575929
w 186 185 172 0.686406
w 186 185 -172 0.111773
w 186 -185 172 0.213043
w 186 -185 -172 0.544923
w 187 186 173 1
w 187 186 -173 1
w 187 -186 173 1
w 187 -186 -173 0
w 188 187 174 0.114641
w 188 187 -174 0.23258
w 188 -187 174 0.978907
w 188 -187 -174 0.0996618
w 189 188 175 0
w 189 188 -175 1
w 189 -188 175 1
w 189 -188 -175 1
w 190 189 176 1
w 190 189 -176 0
w 190 -189 176 1
w 190 -189 -176 0
w 191 190 177 0.919103
w 191 190 -177 0.779324
w 191 -190 177 0.227514
w 191 -190 -177 0.25825
w 192 191 178 1
w 192 191 -178 1
w 192 -191 178 0
w 192 -191 -178 1
w 193 192 179 1
w 193 192 -179 0
w 193 -192 179 1
w 193 -192 -179 1
w 194 193 180 0
w 194 193 -180 1
w 194 -193 180 0
w 194 -193 -180 1
w 195 194 181 0.810265
w 195 194 -181 0.191411
w 195 -194 181 0.340635
w 195 -194 -181 0.109427
w 196 195 182 1
w 196 195 -182 1
w 196 -195 182 0
w 196 -195 -182 0